letting fixed be 

[
    [0,0,0,0,3,4,0,9,1],
    [4,0,0,1,7,0,0,0,0],
    [0,0,6,0,0,0,7,0,0],
    [1,0,0,0,0,3,0,0,0],
    [9,0,5,0,0,0,1,2,0],
    [0,0,4,5,0,0,0,6,7],
    [6,2,0,0,0,9,0,0,0],
    [5,4,0,2,1,0,9,8,6],
    [8,7,0,3,5,6,4,1,0]
]